[26520, 28080, 23996, 23996, 23576, 22682, 22682, 22682, 22080, 20184, 18128, 18128, 18128, 18840, 15354, 15354, 15354, 14784, 14336, 13968, 13968, 11700, 11700, 11700, 10548, 10032, 8340, 8340, 6320, 6320, 6320, 6320, 6224, 6296, 5196, 4740, 4740, 4710, 4710, 4740, 4722, 4656, 4638, 4638, 4494, 4638, 4638, 4572, 4494, 4548, 4422, 4404, 4404, 4422, 4422, 4368, 4368, 4368, 4368, 4368, 2912, 2912, 2912, 2912, 2848, 2848, 2868, 2832, 2832, 2848, 2812, 2808, 2808, 2808, 2808, 1424, 1424, 1424, 1424, 1388, 1388, 1374, 1382, 1382, 1382, 1382, 1382, 1382, 1374, 1374, 1374, 1356, 1374, 1374, 1364, 1364, 1364, 1364, 1364, 1360, 1356, 1356, 1356, 1356, 1356, 1356, 1356, 1356, 1356, 1356, 1356, 1356, 1356, 1356, 1356, 1356, 1356, 1356, 1356, 1356, 1356, 1356, 1356, 1356, 1356, 1356, 1356, 1356, 1356, 1356, 1356, 1356, 1356, 1356, 1356, 1356, 1356, 1356, 1356, 1356, 1356, 1356, 1356, 1356, 1356, 1356, 1356, 1356, 1356, 1356, 1356, 1356, 1356, 1356, 1356, 1356, 1356, 1356, 1356, 1356, 1356, 1356, 1356, 1356, 1356, 1356, 1356, 1356, 1356, 1356, 1356, 1356, 1356, 1356, 1356, 1356, 1356, 1356, 1356, 1356, 1356, 1356, 1356, 1356, 1356, 1356, 1356, 1356, 1356, 1356, 1356, 1356, 1356, 1356, 1356, 1356, 1356, 1356, 1356, 1356]